32
63
17
44
128
0
60
42
45
0
21
37
102
0
0
71
69
33
110
13
0
105
54
67
32
111
36
27
0
35
38
0
22
22
21
21
42
28
25
0
0
19
29
58
26
0
24
41
15
0
0
0
17
15
22
0
71
0
32
79
63
41
27
31
0
41
89
19
83
56
21
53
34
28
59
86
42
28
58
49
41
0
35
65
0
20
73
41
32
100
29
37
122
55
10
23
21
18
21
91
